p cnf 356 2688
1 -217 -153 0
-1 217 -153 0
1 217 -154 0
-1 -217 -154 0
20 -217 -161 0
-20 217 -161 0
20 217 -162 0
-20 -217 -162 0
39 -217 -169 0
-39 217 -169 0
39 217 -170 0
-39 -217 -170 0
58 -217 -177 0
-58 217 -177 0
58 217 -178 0
-58 -217 -178 0
77 -217 -185 0
-77 217 -185 0
77 217 -186 0
-77 -217 -186 0
96 -217 -193 0
-96 217 -193 0
96 217 -194 0
-96 -217 -194 0
115 -217 -201 0
-115 217 -201 0
115 217 -202 0
-115 -217 -202 0
134 -217 -209 0
-134 217 -209 0
134 217 -210 0
-134 -217 -210 0
2 -218 -153 0
-2 218 -153 0
2 218 -154 0
-2 -218 -154 0
21 -218 -161 0
-21 218 -161 0
21 218 -162 0
-21 -218 -162 0
40 -218 -169 0
-40 218 -169 0
40 218 -170 0
-40 -218 -170 0
59 -218 -177 0
-59 218 -177 0
59 218 -178 0
-59 -218 -178 0
78 -218 -185 0
-78 218 -185 0
78 218 -186 0
-78 -218 -186 0
97 -218 -193 0
-97 218 -193 0
97 218 -194 0
-97 -218 -194 0
116 -218 -201 0
-116 218 -201 0
116 218 -202 0
-116 -218 -202 0
135 -218 -209 0
-135 218 -209 0
135 218 -210 0
-135 -218 -210 0
3 -219 -153 0
-3 219 -153 0
3 219 -154 0
-3 -219 -154 0
22 -219 -161 0
-22 219 -161 0
22 219 -162 0
-22 -219 -162 0
41 -219 -169 0
-41 219 -169 0
41 219 -170 0
-41 -219 -170 0
60 -219 -177 0
-60 219 -177 0
60 219 -178 0
-60 -219 -178 0
79 -219 -185 0
-79 219 -185 0
79 219 -186 0
-79 -219 -186 0
98 -219 -193 0
-98 219 -193 0
98 219 -194 0
-98 -219 -194 0
117 -219 -201 0
-117 219 -201 0
117 219 -202 0
-117 -219 -202 0
136 -219 -209 0
-136 219 -209 0
136 219 -210 0
-136 -219 -210 0
4 -153 0
4 -154 0
153 -153 0
154 -154 0
23 -161 0
23 -162 0
161 -161 0
162 -162 0
42 -169 0
42 -170 0
169 -169 0
170 -170 0
61 -177 0
61 -178 0
177 -177 0
178 -178 0
80 -185 0
80 -186 0
185 -185 0
186 -186 0
99 -193 0
99 -194 0
193 -193 0
194 -194 0
118 -201 0
118 -202 0
201 -201 0
202 -202 0
137 -209 0
137 -210 0
209 -209 0
210 -210 0
5 -153 0
5 -154 0
153 -153 0
154 -154 0
24 -161 0
24 -162 0
161 -161 0
162 -162 0
43 -169 0
43 -170 0
169 -169 0
170 -170 0
62 -177 0
62 -178 0
177 -177 0
178 -178 0
81 -185 0
81 -186 0
185 -185 0
186 -186 0
100 -193 0
100 -194 0
193 -193 0
194 -194 0
119 -201 0
119 -202 0
201 -201 0
202 -202 0
138 -209 0
138 -210 0
209 -209 0
210 -210 0
-6 -153 0
-6 -154 0
153 -153 0
154 -154 0
-25 -161 0
-25 -162 0
161 -161 0
162 -162 0
-44 -169 0
-44 -170 0
169 -169 0
170 -170 0
-63 -177 0
-63 -178 0
177 -177 0
178 -178 0
-82 -185 0
-82 -186 0
185 -185 0
186 -186 0
-101 -193 0
-101 -194 0
193 -193 0
194 -194 0
-120 -201 0
-120 -202 0
201 -201 0
202 -202 0
-139 -209 0
-139 -210 0
209 -209 0
210 -210 0
-7 -153 0
-7 -154 0
153 -153 0
154 -154 0
-26 -161 0
-26 -162 0
161 -161 0
162 -162 0
-45 -169 0
-45 -170 0
169 -169 0
170 -170 0
-64 -177 0
-64 -178 0
177 -177 0
178 -178 0
-83 -185 0
-83 -186 0
185 -185 0
186 -186 0
-102 -193 0
-102 -194 0
193 -193 0
194 -194 0
-121 -201 0
-121 -202 0
201 -201 0
202 -202 0
-140 -209 0
-140 -210 0
209 -209 0
210 -210 0
8 -153 0
8 -154 0
153 -153 0
154 -154 0
27 -161 0
27 -162 0
161 -161 0
162 -162 0
46 -169 0
46 -170 0
169 -169 0
170 -170 0
65 -177 0
65 -178 0
177 -177 0
178 -178 0
84 -185 0
84 -186 0
185 -185 0
186 -186 0
103 -193 0
103 -194 0
193 -193 0
194 -194 0
122 -201 0
122 -202 0
201 -201 0
202 -202 0
141 -209 0
141 -210 0
209 -209 0
210 -210 0
-9 -153 0
-9 -154 0
153 -153 0
154 -154 0
-28 -161 0
-28 -162 0
161 -161 0
162 -162 0
-47 -169 0
-47 -170 0
169 -169 0
170 -170 0
-66 -177 0
-66 -178 0
177 -177 0
178 -178 0
-85 -185 0
-85 -186 0
185 -185 0
186 -186 0
-104 -193 0
-104 -194 0
193 -193 0
194 -194 0
-123 -201 0
-123 -202 0
201 -201 0
202 -202 0
-142 -209 0
-142 -210 0
209 -209 0
210 -210 0
-10 -153 0
-10 -154 0
153 -153 0
154 -154 0
-29 -161 0
-29 -162 0
161 -161 0
162 -162 0
-48 -169 0
-48 -170 0
169 -169 0
170 -170 0
-67 -177 0
-67 -178 0
177 -177 0
178 -178 0
-86 -185 0
-86 -186 0
185 -185 0
186 -186 0
-105 -193 0
-105 -194 0
193 -193 0
194 -194 0
-124 -201 0
-124 -202 0
201 -201 0
202 -202 0
-143 -209 0
-143 -210 0
209 -209 0
210 -210 0
11 -153 0
11 -154 0
153 -153 0
154 -154 0
30 -161 0
30 -162 0
161 -161 0
162 -162 0
49 -169 0
49 -170 0
169 -169 0
170 -170 0
68 -177 0
68 -178 0
177 -177 0
178 -178 0
87 -185 0
87 -186 0
185 -185 0
186 -186 0
106 -193 0
106 -194 0
193 -193 0
194 -194 0
125 -201 0
125 -202 0
201 -201 0
202 -202 0
144 -209 0
144 -210 0
209 -209 0
210 -210 0
-12 -153 0
-12 -154 0
153 -153 0
154 -154 0
-31 -161 0
-31 -162 0
161 -161 0
162 -162 0
-50 -169 0
-50 -170 0
169 -169 0
170 -170 0
-69 -177 0
-69 -178 0
177 -177 0
178 -178 0
-88 -185 0
-88 -186 0
185 -185 0
186 -186 0
-107 -193 0
-107 -194 0
193 -193 0
194 -194 0
-126 -201 0
-126 -202 0
201 -201 0
202 -202 0
-145 -209 0
-145 -210 0
209 -209 0
210 -210 0
13 -220 -153 0
-13 220 -153 0
13 220 -154 0
-13 -220 -154 0
32 -220 -161 0
-32 220 -161 0
32 220 -162 0
-32 -220 -162 0
51 -220 -169 0
-51 220 -169 0
51 220 -170 0
-51 -220 -170 0
70 -220 -177 0
-70 220 -177 0
70 220 -178 0
-70 -220 -178 0
89 -220 -185 0
-89 220 -185 0
89 220 -186 0
-89 -220 -186 0
108 -220 -193 0
-108 220 -193 0
108 220 -194 0
-108 -220 -194 0
127 -220 -201 0
-127 220 -201 0
127 220 -202 0
-127 -220 -202 0
146 -220 -209 0
-146 220 -209 0
146 220 -210 0
-146 -220 -210 0
14 -221 -153 0
-14 221 -153 0
14 221 -154 0
-14 -221 -154 0
33 -221 -161 0
-33 221 -161 0
33 221 -162 0
-33 -221 -162 0
52 -221 -169 0
-52 221 -169 0
52 221 -170 0
-52 -221 -170 0
71 -221 -177 0
-71 221 -177 0
71 221 -178 0
-71 -221 -178 0
90 -221 -185 0
-90 221 -185 0
90 221 -186 0
-90 -221 -186 0
109 -221 -193 0
-109 221 -193 0
109 221 -194 0
-109 -221 -194 0
128 -221 -201 0
-128 221 -201 0
128 221 -202 0
-128 -221 -202 0
147 -221 -209 0
-147 221 -209 0
147 221 -210 0
-147 -221 -210 0
15 -222 -153 0
-15 222 -153 0
15 222 -154 0
-15 -222 -154 0
34 -222 -161 0
-34 222 -161 0
34 222 -162 0
-34 -222 -162 0
53 -222 -169 0
-53 222 -169 0
53 222 -170 0
-53 -222 -170 0
72 -222 -177 0
-72 222 -177 0
72 222 -178 0
-72 -222 -178 0
91 -222 -185 0
-91 222 -185 0
91 222 -186 0
-91 -222 -186 0
110 -222 -193 0
-110 222 -193 0
110 222 -194 0
-110 -222 -194 0
129 -222 -201 0
-129 222 -201 0
129 222 -202 0
-129 -222 -202 0
148 -222 -209 0
-148 222 -209 0
148 222 -210 0
-148 -222 -210 0
16 -223 -153 0
-16 223 -153 0
16 223 -154 0
-16 -223 -154 0
35 -223 -161 0
-35 223 -161 0
35 223 -162 0
-35 -223 -162 0
54 -223 -169 0
-54 223 -169 0
54 223 -170 0
-54 -223 -170 0
73 -223 -177 0
-73 223 -177 0
73 223 -178 0
-73 -223 -178 0
92 -223 -185 0
-92 223 -185 0
92 223 -186 0
-92 -223 -186 0
111 -223 -193 0
-111 223 -193 0
111 223 -194 0
-111 -223 -194 0
130 -223 -201 0
-130 223 -201 0
130 223 -202 0
-130 -223 -202 0
149 -223 -209 0
-149 223 -209 0
149 223 -210 0
-149 -223 -210 0
17 -224 -153 0
-17 224 -153 0
17 224 -154 0
-17 -224 -154 0
36 -224 -161 0
-36 224 -161 0
36 224 -162 0
-36 -224 -162 0
55 -224 -169 0
-55 224 -169 0
55 224 -170 0
-55 -224 -170 0
74 -224 -177 0
-74 224 -177 0
74 224 -178 0
-74 -224 -178 0
93 -224 -185 0
-93 224 -185 0
93 224 -186 0
-93 -224 -186 0
112 -224 -193 0
-112 224 -193 0
112 224 -194 0
-112 -224 -194 0
131 -224 -201 0
-131 224 -201 0
131 224 -202 0
-131 -224 -202 0
150 -224 -209 0
-150 224 -209 0
150 224 -210 0
-150 -224 -210 0
18 -225 -153 0
-18 225 -153 0
18 225 -154 0
-18 -225 -154 0
37 -225 -161 0
-37 225 -161 0
37 225 -162 0
-37 -225 -162 0
56 -225 -169 0
-56 225 -169 0
56 225 -170 0
-56 -225 -170 0
75 -225 -177 0
-75 225 -177 0
75 225 -178 0
-75 -225 -178 0
94 -225 -185 0
-94 225 -185 0
94 225 -186 0
-94 -225 -186 0
113 -225 -193 0
-113 225 -193 0
113 225 -194 0
-113 -225 -194 0
132 -225 -201 0
-132 225 -201 0
132 225 -202 0
-132 -225 -202 0
151 -225 -209 0
-151 225 -209 0
151 225 -210 0
-151 -225 -210 0
19 -226 -153 0
-19 226 -153 0
19 226 -154 0
-19 -226 -154 0
38 -226 -161 0
-38 226 -161 0
38 226 -162 0
-38 -226 -162 0
57 -226 -169 0
-57 226 -169 0
57 226 -170 0
-57 -226 -170 0
76 -226 -177 0
-76 226 -177 0
76 226 -178 0
-76 -226 -178 0
95 -226 -185 0
-95 226 -185 0
95 226 -186 0
-95 -226 -186 0
114 -226 -193 0
-114 226 -193 0
114 226 -194 0
-114 -226 -194 0
133 -226 -201 0
-133 226 -201 0
133 226 -202 0
-133 -226 -202 0
152 -226 -209 0
-152 226 -209 0
152 226 -210 0
-152 -226 -210 0
-293 153 0
293 -153 0
-294 154 0
293 -154 0
-293 -153 0
-294 -154 0
-301 153 293 0
301 -153 0
301 -293 0
-302 154 294 0
302 -154 0
302 -294 0
-301 -161 0
-302 -162 0
-309 161 301 0
309 -161 0
309 -301 0
-310 162 302 0
310 -162 0
310 -302 0
-309 -169 0
-310 -170 0
-317 169 309 0
317 -169 0
317 -309 0
-318 170 310 0
318 -170 0
318 -310 0
-317 -177 0
-318 -178 0
-325 177 317 0
325 -177 0
325 -317 0
-326 178 318 0
326 -178 0
326 -318 0
-325 -185 0
-326 -186 0
-333 185 325 0
333 -185 0
333 -325 0
-334 186 326 0
334 -186 0
334 -326 0
-333 -193 0
-334 -194 0
-341 193 333 0
341 -193 0
341 -333 0
-342 194 334 0
342 -194 0
342 -334 0
-341 -201 0
-342 -202 0
-349 201 341 0
349 -201 0
349 -341 0
-350 202 342 0
350 -202 0
350 -342 0
-349 -209 0
-350 -210 0
349 0
350 0
1 -155 0
1 -156 0
155 -155 0
156 -156 0
20 -163 0
20 -164 0
163 -163 0
164 -164 0
39 -171 0
39 -172 0
171 -171 0
172 -172 0
58 -179 0
58 -180 0
179 -179 0
180 -180 0
77 -187 0
77 -188 0
187 -187 0
188 -188 0
96 -195 0
96 -196 0
195 -195 0
196 -196 0
115 -203 0
115 -204 0
203 -203 0
204 -204 0
134 -211 0
134 -212 0
211 -211 0
212 -212 0
-2 -155 0
-2 -156 0
155 -155 0
156 -156 0
-21 -163 0
-21 -164 0
163 -163 0
164 -164 0
-40 -171 0
-40 -172 0
171 -171 0
172 -172 0
-59 -179 0
-59 -180 0
179 -179 0
180 -180 0
-78 -187 0
-78 -188 0
187 -187 0
188 -188 0
-97 -195 0
-97 -196 0
195 -195 0
196 -196 0
-116 -203 0
-116 -204 0
203 -203 0
204 -204 0
-135 -211 0
-135 -212 0
211 -211 0
212 -212 0
3 -155 0
3 -156 0
155 -155 0
156 -156 0
22 -163 0
22 -164 0
163 -163 0
164 -164 0
41 -171 0
41 -172 0
171 -171 0
172 -172 0
60 -179 0
60 -180 0
179 -179 0
180 -180 0
79 -187 0
79 -188 0
187 -187 0
188 -188 0
98 -195 0
98 -196 0
195 -195 0
196 -196 0
117 -203 0
117 -204 0
203 -203 0
204 -204 0
136 -211 0
136 -212 0
211 -211 0
212 -212 0
4 -155 0
4 -156 0
155 -155 0
156 -156 0
23 -163 0
23 -164 0
163 -163 0
164 -164 0
42 -171 0
42 -172 0
171 -171 0
172 -172 0
61 -179 0
61 -180 0
179 -179 0
180 -180 0
80 -187 0
80 -188 0
187 -187 0
188 -188 0
99 -195 0
99 -196 0
195 -195 0
196 -196 0
118 -203 0
118 -204 0
203 -203 0
204 -204 0
137 -211 0
137 -212 0
211 -211 0
212 -212 0
5 -155 0
5 -156 0
155 -155 0
156 -156 0
24 -163 0
24 -164 0
163 -163 0
164 -164 0
43 -171 0
43 -172 0
171 -171 0
172 -172 0
62 -179 0
62 -180 0
179 -179 0
180 -180 0
81 -187 0
81 -188 0
187 -187 0
188 -188 0
100 -195 0
100 -196 0
195 -195 0
196 -196 0
119 -203 0
119 -204 0
203 -203 0
204 -204 0
138 -211 0
138 -212 0
211 -211 0
212 -212 0
-6 -155 0
-6 -156 0
155 -155 0
156 -156 0
-25 -163 0
-25 -164 0
163 -163 0
164 -164 0
-44 -171 0
-44 -172 0
171 -171 0
172 -172 0
-63 -179 0
-63 -180 0
179 -179 0
180 -180 0
-82 -187 0
-82 -188 0
187 -187 0
188 -188 0
-101 -195 0
-101 -196 0
195 -195 0
196 -196 0
-120 -203 0
-120 -204 0
203 -203 0
204 -204 0
-139 -211 0
-139 -212 0
211 -211 0
212 -212 0
-7 -155 0
-7 -156 0
155 -155 0
156 -156 0
-26 -163 0
-26 -164 0
163 -163 0
164 -164 0
-45 -171 0
-45 -172 0
171 -171 0
172 -172 0
-64 -179 0
-64 -180 0
179 -179 0
180 -180 0
-83 -187 0
-83 -188 0
187 -187 0
188 -188 0
-102 -195 0
-102 -196 0
195 -195 0
196 -196 0
-121 -203 0
-121 -204 0
203 -203 0
204 -204 0
-140 -211 0
-140 -212 0
211 -211 0
212 -212 0
8 -155 0
8 -156 0
155 -155 0
156 -156 0
27 -163 0
27 -164 0
163 -163 0
164 -164 0
46 -171 0
46 -172 0
171 -171 0
172 -172 0
65 -179 0
65 -180 0
179 -179 0
180 -180 0
84 -187 0
84 -188 0
187 -187 0
188 -188 0
103 -195 0
103 -196 0
195 -195 0
196 -196 0
122 -203 0
122 -204 0
203 -203 0
204 -204 0
141 -211 0
141 -212 0
211 -211 0
212 -212 0
-9 -155 0
-9 -156 0
155 -155 0
156 -156 0
-28 -163 0
-28 -164 0
163 -163 0
164 -164 0
-47 -171 0
-47 -172 0
171 -171 0
172 -172 0
-66 -179 0
-66 -180 0
179 -179 0
180 -180 0
-85 -187 0
-85 -188 0
187 -187 0
188 -188 0
-104 -195 0
-104 -196 0
195 -195 0
196 -196 0
-123 -203 0
-123 -204 0
203 -203 0
204 -204 0
-142 -211 0
-142 -212 0
211 -211 0
212 -212 0
-10 -155 0
-10 -156 0
155 -155 0
156 -156 0
-29 -163 0
-29 -164 0
163 -163 0
164 -164 0
-48 -171 0
-48 -172 0
171 -171 0
172 -172 0
-67 -179 0
-67 -180 0
179 -179 0
180 -180 0
-86 -187 0
-86 -188 0
187 -187 0
188 -188 0
-105 -195 0
-105 -196 0
195 -195 0
196 -196 0
-124 -203 0
-124 -204 0
203 -203 0
204 -204 0
-143 -211 0
-143 -212 0
211 -211 0
212 -212 0
11 -155 0
11 -156 0
155 -155 0
156 -156 0
30 -163 0
30 -164 0
163 -163 0
164 -164 0
49 -171 0
49 -172 0
171 -171 0
172 -172 0
68 -179 0
68 -180 0
179 -179 0
180 -180 0
87 -187 0
87 -188 0
187 -187 0
188 -188 0
106 -195 0
106 -196 0
195 -195 0
196 -196 0
125 -203 0
125 -204 0
203 -203 0
204 -204 0
144 -211 0
144 -212 0
211 -211 0
212 -212 0
-12 -155 0
-12 -156 0
155 -155 0
156 -156 0
-31 -163 0
-31 -164 0
163 -163 0
164 -164 0
-50 -171 0
-50 -172 0
171 -171 0
172 -172 0
-69 -179 0
-69 -180 0
179 -179 0
180 -180 0
-88 -187 0
-88 -188 0
187 -187 0
188 -188 0
-107 -195 0
-107 -196 0
195 -195 0
196 -196 0
-126 -203 0
-126 -204 0
203 -203 0
204 -204 0
-145 -211 0
-145 -212 0
211 -211 0
212 -212 0
-13 -155 0
-13 -156 0
155 -155 0
156 -156 0
-32 -163 0
-32 -164 0
163 -163 0
164 -164 0
-51 -171 0
-51 -172 0
171 -171 0
172 -172 0
-70 -179 0
-70 -180 0
179 -179 0
180 -180 0
-89 -187 0
-89 -188 0
187 -187 0
188 -188 0
-108 -195 0
-108 -196 0
195 -195 0
196 -196 0
-127 -203 0
-127 -204 0
203 -203 0
204 -204 0
-146 -211 0
-146 -212 0
211 -211 0
212 -212 0
-14 -155 0
-14 -156 0
155 -155 0
156 -156 0
-33 -163 0
-33 -164 0
163 -163 0
164 -164 0
-52 -171 0
-52 -172 0
171 -171 0
172 -172 0
-71 -179 0
-71 -180 0
179 -179 0
180 -180 0
-90 -187 0
-90 -188 0
187 -187 0
188 -188 0
-109 -195 0
-109 -196 0
195 -195 0
196 -196 0
-128 -203 0
-128 -204 0
203 -203 0
204 -204 0
-147 -211 0
-147 -212 0
211 -211 0
212 -212 0
15 -155 0
15 -156 0
155 -155 0
156 -156 0
34 -163 0
34 -164 0
163 -163 0
164 -164 0
53 -171 0
53 -172 0
171 -171 0
172 -172 0
72 -179 0
72 -180 0
179 -179 0
180 -180 0
91 -187 0
91 -188 0
187 -187 0
188 -188 0
110 -195 0
110 -196 0
195 -195 0
196 -196 0
129 -203 0
129 -204 0
203 -203 0
204 -204 0
148 -211 0
148 -212 0
211 -211 0
212 -212 0
16 -155 0
16 -156 0
155 -155 0
156 -156 0
35 -163 0
35 -164 0
163 -163 0
164 -164 0
54 -171 0
54 -172 0
171 -171 0
172 -172 0
73 -179 0
73 -180 0
179 -179 0
180 -180 0
92 -187 0
92 -188 0
187 -187 0
188 -188 0
111 -195 0
111 -196 0
195 -195 0
196 -196 0
130 -203 0
130 -204 0
203 -203 0
204 -204 0
149 -211 0
149 -212 0
211 -211 0
212 -212 0
17 -155 0
17 -156 0
155 -155 0
156 -156 0
36 -163 0
36 -164 0
163 -163 0
164 -164 0
55 -171 0
55 -172 0
171 -171 0
172 -172 0
74 -179 0
74 -180 0
179 -179 0
180 -180 0
93 -187 0
93 -188 0
187 -187 0
188 -188 0
112 -195 0
112 -196 0
195 -195 0
196 -196 0
131 -203 0
131 -204 0
203 -203 0
204 -204 0
150 -211 0
150 -212 0
211 -211 0
212 -212 0
-18 -155 0
-18 -156 0
155 -155 0
156 -156 0
-37 -163 0
-37 -164 0
163 -163 0
164 -164 0
-56 -171 0
-56 -172 0
171 -171 0
172 -172 0
-75 -179 0
-75 -180 0
179 -179 0
180 -180 0
-94 -187 0
-94 -188 0
187 -187 0
188 -188 0
-113 -195 0
-113 -196 0
195 -195 0
196 -196 0
-132 -203 0
-132 -204 0
203 -203 0
204 -204 0
-151 -211 0
-151 -212 0
211 -211 0
212 -212 0
-19 -155 0
-19 -156 0
155 -155 0
156 -156 0
-38 -163 0
-38 -164 0
163 -163 0
164 -164 0
-57 -171 0
-57 -172 0
171 -171 0
172 -172 0
-76 -179 0
-76 -180 0
179 -179 0
180 -180 0
-95 -187 0
-95 -188 0
187 -187 0
188 -188 0
-114 -195 0
-114 -196 0
195 -195 0
196 -196 0
-133 -203 0
-133 -204 0
203 -203 0
204 -204 0
-152 -211 0
-152 -212 0
211 -211 0
212 -212 0
-295 155 0
295 -155 0
-296 156 0
295 -156 0
-295 -155 0
-296 -156 0
-303 155 295 0
303 -155 0
303 -295 0
-304 156 296 0
304 -156 0
304 -296 0
-303 -163 0
-304 -164 0
-311 163 303 0
311 -163 0
311 -303 0
-312 164 304 0
312 -164 0
312 -304 0
-311 -171 0
-312 -172 0
-319 171 311 0
319 -171 0
319 -311 0
-320 172 312 0
320 -172 0
320 -312 0
-319 -179 0
-320 -180 0
-327 179 319 0
327 -179 0
327 -319 0
-328 180 320 0
328 -180 0
328 -320 0
-327 -187 0
-328 -188 0
-335 187 327 0
335 -187 0
335 -327 0
-336 188 328 0
336 -188 0
336 -328 0
-335 -195 0
-336 -196 0
-343 195 335 0
343 -195 0
343 -335 0
-344 196 336 0
344 -196 0
344 -336 0
-343 -203 0
-344 -204 0
-351 203 343 0
351 -203 0
351 -343 0
-352 204 344 0
352 -204 0
352 -344 0
-351 -211 0
-352 -212 0
351 0
352 0
1 -157 0
1 -158 0
157 -157 0
158 -158 0
20 -165 0
20 -166 0
165 -165 0
166 -166 0
39 -173 0
39 -174 0
173 -173 0
174 -174 0
58 -181 0
58 -182 0
181 -181 0
182 -182 0
77 -189 0
77 -190 0
189 -189 0
190 -190 0
96 -197 0
96 -198 0
197 -197 0
198 -198 0
115 -205 0
115 -206 0
205 -205 0
206 -206 0
134 -213 0
134 -214 0
213 -213 0
214 -214 0
-2 -157 0
-2 -158 0
157 -157 0
158 -158 0
-21 -165 0
-21 -166 0
165 -165 0
166 -166 0
-40 -173 0
-40 -174 0
173 -173 0
174 -174 0
-59 -181 0
-59 -182 0
181 -181 0
182 -182 0
-78 -189 0
-78 -190 0
189 -189 0
190 -190 0
-97 -197 0
-97 -198 0
197 -197 0
198 -198 0
-116 -205 0
-116 -206 0
205 -205 0
206 -206 0
-135 -213 0
-135 -214 0
213 -213 0
214 -214 0
3 -157 0
3 -158 0
157 -157 0
158 -158 0
22 -165 0
22 -166 0
165 -165 0
166 -166 0
41 -173 0
41 -174 0
173 -173 0
174 -174 0
60 -181 0
60 -182 0
181 -181 0
182 -182 0
79 -189 0
79 -190 0
189 -189 0
190 -190 0
98 -197 0
98 -198 0
197 -197 0
198 -198 0
117 -205 0
117 -206 0
205 -205 0
206 -206 0
136 -213 0
136 -214 0
213 -213 0
214 -214 0
4 -157 0
4 -158 0
157 -157 0
158 -158 0
23 -165 0
23 -166 0
165 -165 0
166 -166 0
42 -173 0
42 -174 0
173 -173 0
174 -174 0
61 -181 0
61 -182 0
181 -181 0
182 -182 0
80 -189 0
80 -190 0
189 -189 0
190 -190 0
99 -197 0
99 -198 0
197 -197 0
198 -198 0
118 -205 0
118 -206 0
205 -205 0
206 -206 0
137 -213 0
137 -214 0
213 -213 0
214 -214 0
5 -157 0
5 -158 0
157 -157 0
158 -158 0
24 -165 0
24 -166 0
165 -165 0
166 -166 0
43 -173 0
43 -174 0
173 -173 0
174 -174 0
62 -181 0
62 -182 0
181 -181 0
182 -182 0
81 -189 0
81 -190 0
189 -189 0
190 -190 0
100 -197 0
100 -198 0
197 -197 0
198 -198 0
119 -205 0
119 -206 0
205 -205 0
206 -206 0
138 -213 0
138 -214 0
213 -213 0
214 -214 0
-6 -157 0
-6 -158 0
157 -157 0
158 -158 0
-25 -165 0
-25 -166 0
165 -165 0
166 -166 0
-44 -173 0
-44 -174 0
173 -173 0
174 -174 0
-63 -181 0
-63 -182 0
181 -181 0
182 -182 0
-82 -189 0
-82 -190 0
189 -189 0
190 -190 0
-101 -197 0
-101 -198 0
197 -197 0
198 -198 0
-120 -205 0
-120 -206 0
205 -205 0
206 -206 0
-139 -213 0
-139 -214 0
213 -213 0
214 -214 0
-7 -157 0
-7 -158 0
157 -157 0
158 -158 0
-26 -165 0
-26 -166 0
165 -165 0
166 -166 0
-45 -173 0
-45 -174 0
173 -173 0
174 -174 0
-64 -181 0
-64 -182 0
181 -181 0
182 -182 0
-83 -189 0
-83 -190 0
189 -189 0
190 -190 0
-102 -197 0
-102 -198 0
197 -197 0
198 -198 0
-121 -205 0
-121 -206 0
205 -205 0
206 -206 0
-140 -213 0
-140 -214 0
213 -213 0
214 -214 0
8 -157 0
8 -158 0
157 -157 0
158 -158 0
27 -165 0
27 -166 0
165 -165 0
166 -166 0
46 -173 0
46 -174 0
173 -173 0
174 -174 0
65 -181 0
65 -182 0
181 -181 0
182 -182 0
84 -189 0
84 -190 0
189 -189 0
190 -190 0
103 -197 0
103 -198 0
197 -197 0
198 -198 0
122 -205 0
122 -206 0
205 -205 0
206 -206 0
141 -213 0
141 -214 0
213 -213 0
214 -214 0
-9 -157 0
-9 -158 0
157 -157 0
158 -158 0
-28 -165 0
-28 -166 0
165 -165 0
166 -166 0
-47 -173 0
-47 -174 0
173 -173 0
174 -174 0
-66 -181 0
-66 -182 0
181 -181 0
182 -182 0
-85 -189 0
-85 -190 0
189 -189 0
190 -190 0
-104 -197 0
-104 -198 0
197 -197 0
198 -198 0
-123 -205 0
-123 -206 0
205 -205 0
206 -206 0
-142 -213 0
-142 -214 0
213 -213 0
214 -214 0
10 -227 -157 0
-10 227 -157 0
10 227 -158 0
-10 -227 -158 0
29 -227 -165 0
-29 227 -165 0
29 227 -166 0
-29 -227 -166 0
48 -227 -173 0
-48 227 -173 0
48 227 -174 0
-48 -227 -174 0
67 -227 -181 0
-67 227 -181 0
67 227 -182 0
-67 -227 -182 0
86 -227 -189 0
-86 227 -189 0
86 227 -190 0
-86 -227 -190 0
105 -227 -197 0
-105 227 -197 0
105 227 -198 0
-105 -227 -198 0
124 -227 -205 0
-124 227 -205 0
124 227 -206 0
-124 -227 -206 0
143 -227 -213 0
-143 227 -213 0
143 227 -214 0
-143 -227 -214 0
11 -157 0
11 -158 0
157 -157 0
158 -158 0
30 -165 0
30 -166 0
165 -165 0
166 -166 0
49 -173 0
49 -174 0
173 -173 0
174 -174 0
68 -181 0
68 -182 0
181 -181 0
182 -182 0
87 -189 0
87 -190 0
189 -189 0
190 -190 0
106 -197 0
106 -198 0
197 -197 0
198 -198 0
125 -205 0
125 -206 0
205 -205 0
206 -206 0
144 -213 0
144 -214 0
213 -213 0
214 -214 0
-12 -157 0
-12 -158 0
157 -157 0
158 -158 0
-31 -165 0
-31 -166 0
165 -165 0
166 -166 0
-50 -173 0
-50 -174 0
173 -173 0
174 -174 0
-69 -181 0
-69 -182 0
181 -181 0
182 -182 0
-88 -189 0
-88 -190 0
189 -189 0
190 -190 0
-107 -197 0
-107 -198 0
197 -197 0
198 -198 0
-126 -205 0
-126 -206 0
205 -205 0
206 -206 0
-145 -213 0
-145 -214 0
213 -213 0
214 -214 0
-13 -157 0
-13 -158 0
157 -157 0
158 -158 0
-32 -165 0
-32 -166 0
165 -165 0
166 -166 0
-51 -173 0
-51 -174 0
173 -173 0
174 -174 0
-70 -181 0
-70 -182 0
181 -181 0
182 -182 0
-89 -189 0
-89 -190 0
189 -189 0
190 -190 0
-108 -197 0
-108 -198 0
197 -197 0
198 -198 0
-127 -205 0
-127 -206 0
205 -205 0
206 -206 0
-146 -213 0
-146 -214 0
213 -213 0
214 -214 0
14 -228 -157 0
-14 228 -157 0
14 228 -158 0
-14 -228 -158 0
33 -228 -165 0
-33 228 -165 0
33 228 -166 0
-33 -228 -166 0
52 -228 -173 0
-52 228 -173 0
52 228 -174 0
-52 -228 -174 0
71 -228 -181 0
-71 228 -181 0
71 228 -182 0
-71 -228 -182 0
90 -228 -189 0
-90 228 -189 0
90 228 -190 0
-90 -228 -190 0
109 -228 -197 0
-109 228 -197 0
109 228 -198 0
-109 -228 -198 0
128 -228 -205 0
-128 228 -205 0
128 228 -206 0
-128 -228 -206 0
147 -228 -213 0
-147 228 -213 0
147 228 -214 0
-147 -228 -214 0
15 -157 0
15 -158 0
157 -157 0
158 -158 0
34 -165 0
34 -166 0
165 -165 0
166 -166 0
53 -173 0
53 -174 0
173 -173 0
174 -174 0
72 -181 0
72 -182 0
181 -181 0
182 -182 0
91 -189 0
91 -190 0
189 -189 0
190 -190 0
110 -197 0
110 -198 0
197 -197 0
198 -198 0
129 -205 0
129 -206 0
205 -205 0
206 -206 0
148 -213 0
148 -214 0
213 -213 0
214 -214 0
16 -157 0
16 -158 0
157 -157 0
158 -158 0
35 -165 0
35 -166 0
165 -165 0
166 -166 0
54 -173 0
54 -174 0
173 -173 0
174 -174 0
73 -181 0
73 -182 0
181 -181 0
182 -182 0
92 -189 0
92 -190 0
189 -189 0
190 -190 0
111 -197 0
111 -198 0
197 -197 0
198 -198 0
130 -205 0
130 -206 0
205 -205 0
206 -206 0
149 -213 0
149 -214 0
213 -213 0
214 -214 0
17 -157 0
17 -158 0
157 -157 0
158 -158 0
36 -165 0
36 -166 0
165 -165 0
166 -166 0
55 -173 0
55 -174 0
173 -173 0
174 -174 0
74 -181 0
74 -182 0
181 -181 0
182 -182 0
93 -189 0
93 -190 0
189 -189 0
190 -190 0
112 -197 0
112 -198 0
197 -197 0
198 -198 0
131 -205 0
131 -206 0
205 -205 0
206 -206 0
150 -213 0
150 -214 0
213 -213 0
214 -214 0
-18 -157 0
-18 -158 0
157 -157 0
158 -158 0
-37 -165 0
-37 -166 0
165 -165 0
166 -166 0
-56 -173 0
-56 -174 0
173 -173 0
174 -174 0
-75 -181 0
-75 -182 0
181 -181 0
182 -182 0
-94 -189 0
-94 -190 0
189 -189 0
190 -190 0
-113 -197 0
-113 -198 0
197 -197 0
198 -198 0
-132 -205 0
-132 -206 0
205 -205 0
206 -206 0
-151 -213 0
-151 -214 0
213 -213 0
214 -214 0
-19 -157 0
-19 -158 0
157 -157 0
158 -158 0
-38 -165 0
-38 -166 0
165 -165 0
166 -166 0
-57 -173 0
-57 -174 0
173 -173 0
174 -174 0
-76 -181 0
-76 -182 0
181 -181 0
182 -182 0
-95 -189 0
-95 -190 0
189 -189 0
190 -190 0
-114 -197 0
-114 -198 0
197 -197 0
198 -198 0
-133 -205 0
-133 -206 0
205 -205 0
206 -206 0
-152 -213 0
-152 -214 0
213 -213 0
214 -214 0
-297 157 0
297 -157 0
-298 158 0
297 -158 0
-297 -157 0
-298 -158 0
-305 157 297 0
305 -157 0
305 -297 0
-306 158 298 0
306 -158 0
306 -298 0
-305 -165 0
-306 -166 0
-313 165 305 0
313 -165 0
313 -305 0
-314 166 306 0
314 -166 0
314 -306 0
-313 -173 0
-314 -174 0
-321 173 313 0
321 -173 0
321 -313 0
-322 174 314 0
322 -174 0
322 -314 0
-321 -181 0
-322 -182 0
-329 181 321 0
329 -181 0
329 -321 0
-330 182 322 0
330 -182 0
330 -322 0
-329 -189 0
-330 -190 0
-337 189 329 0
337 -189 0
337 -329 0
-338 190 330 0
338 -190 0
338 -330 0
-337 -197 0
-338 -198 0
-345 197 337 0
345 -197 0
345 -337 0
-346 198 338 0
346 -198 0
346 -338 0
-345 -205 0
-346 -206 0
-353 205 345 0
353 -205 0
353 -345 0
-354 206 346 0
354 -206 0
354 -346 0
-353 -213 0
-354 -214 0
353 0
354 0
1 -159 0
1 -160 0
159 -159 0
160 -160 0
20 -167 0
20 -168 0
167 -167 0
168 -168 0
39 -175 0
39 -176 0
175 -175 0
176 -176 0
58 -183 0
58 -184 0
183 -183 0
184 -184 0
77 -191 0
77 -192 0
191 -191 0
192 -192 0
96 -199 0
96 -200 0
199 -199 0
200 -200 0
115 -207 0
115 -208 0
207 -207 0
208 -208 0
134 -215 0
134 -216 0
215 -215 0
216 -216 0
-2 -159 0
-2 -160 0
159 -159 0
160 -160 0
-21 -167 0
-21 -168 0
167 -167 0
168 -168 0
-40 -175 0
-40 -176 0
175 -175 0
176 -176 0
-59 -183 0
-59 -184 0
183 -183 0
184 -184 0
-78 -191 0
-78 -192 0
191 -191 0
192 -192 0
-97 -199 0
-97 -200 0
199 -199 0
200 -200 0
-116 -207 0
-116 -208 0
207 -207 0
208 -208 0
-135 -215 0
-135 -216 0
215 -215 0
216 -216 0
3 -159 0
3 -160 0
159 -159 0
160 -160 0
22 -167 0
22 -168 0
167 -167 0
168 -168 0
41 -175 0
41 -176 0
175 -175 0
176 -176 0
60 -183 0
60 -184 0
183 -183 0
184 -184 0
79 -191 0
79 -192 0
191 -191 0
192 -192 0
98 -199 0
98 -200 0
199 -199 0
200 -200 0
117 -207 0
117 -208 0
207 -207 0
208 -208 0
136 -215 0
136 -216 0
215 -215 0
216 -216 0
4 -159 0
4 -160 0
159 -159 0
160 -160 0
23 -167 0
23 -168 0
167 -167 0
168 -168 0
42 -175 0
42 -176 0
175 -175 0
176 -176 0
61 -183 0
61 -184 0
183 -183 0
184 -184 0
80 -191 0
80 -192 0
191 -191 0
192 -192 0
99 -199 0
99 -200 0
199 -199 0
200 -200 0
118 -207 0
118 -208 0
207 -207 0
208 -208 0
137 -215 0
137 -216 0
215 -215 0
216 -216 0
5 -159 0
5 -160 0
159 -159 0
160 -160 0
24 -167 0
24 -168 0
167 -167 0
168 -168 0
43 -175 0
43 -176 0
175 -175 0
176 -176 0
62 -183 0
62 -184 0
183 -183 0
184 -184 0
81 -191 0
81 -192 0
191 -191 0
192 -192 0
100 -199 0
100 -200 0
199 -199 0
200 -200 0
119 -207 0
119 -208 0
207 -207 0
208 -208 0
138 -215 0
138 -216 0
215 -215 0
216 -216 0
-6 -159 0
-6 -160 0
159 -159 0
160 -160 0
-25 -167 0
-25 -168 0
167 -167 0
168 -168 0
-44 -175 0
-44 -176 0
175 -175 0
176 -176 0
-63 -183 0
-63 -184 0
183 -183 0
184 -184 0
-82 -191 0
-82 -192 0
191 -191 0
192 -192 0
-101 -199 0
-101 -200 0
199 -199 0
200 -200 0
-120 -207 0
-120 -208 0
207 -207 0
208 -208 0
-139 -215 0
-139 -216 0
215 -215 0
216 -216 0
-7 -159 0
-7 -160 0
159 -159 0
160 -160 0
-26 -167 0
-26 -168 0
167 -167 0
168 -168 0
-45 -175 0
-45 -176 0
175 -175 0
176 -176 0
-64 -183 0
-64 -184 0
183 -183 0
184 -184 0
-83 -191 0
-83 -192 0
191 -191 0
192 -192 0
-102 -199 0
-102 -200 0
199 -199 0
200 -200 0
-121 -207 0
-121 -208 0
207 -207 0
208 -208 0
-140 -215 0
-140 -216 0
215 -215 0
216 -216 0
8 -159 0
8 -160 0
159 -159 0
160 -160 0
27 -167 0
27 -168 0
167 -167 0
168 -168 0
46 -175 0
46 -176 0
175 -175 0
176 -176 0
65 -183 0
65 -184 0
183 -183 0
184 -184 0
84 -191 0
84 -192 0
191 -191 0
192 -192 0
103 -199 0
103 -200 0
199 -199 0
200 -200 0
122 -207 0
122 -208 0
207 -207 0
208 -208 0
141 -215 0
141 -216 0
215 -215 0
216 -216 0
-9 -159 0
-9 -160 0
159 -159 0
160 -160 0
-28 -167 0
-28 -168 0
167 -167 0
168 -168 0
-47 -175 0
-47 -176 0
175 -175 0
176 -176 0
-66 -183 0
-66 -184 0
183 -183 0
184 -184 0
-85 -191 0
-85 -192 0
191 -191 0
192 -192 0
-104 -199 0
-104 -200 0
199 -199 0
200 -200 0
-123 -207 0
-123 -208 0
207 -207 0
208 -208 0
-142 -215 0
-142 -216 0
215 -215 0
216 -216 0
-10 -159 0
-10 -160 0
159 -159 0
160 -160 0
-29 -167 0
-29 -168 0
167 -167 0
168 -168 0
-48 -175 0
-48 -176 0
175 -175 0
176 -176 0
-67 -183 0
-67 -184 0
183 -183 0
184 -184 0
-86 -191 0
-86 -192 0
191 -191 0
192 -192 0
-105 -199 0
-105 -200 0
199 -199 0
200 -200 0
-124 -207 0
-124 -208 0
207 -207 0
208 -208 0
-143 -215 0
-143 -216 0
215 -215 0
216 -216 0
11 -159 0
11 -160 0
159 -159 0
160 -160 0
30 -167 0
30 -168 0
167 -167 0
168 -168 0
49 -175 0
49 -176 0
175 -175 0
176 -176 0
68 -183 0
68 -184 0
183 -183 0
184 -184 0
87 -191 0
87 -192 0
191 -191 0
192 -192 0
106 -199 0
106 -200 0
199 -199 0
200 -200 0
125 -207 0
125 -208 0
207 -207 0
208 -208 0
144 -215 0
144 -216 0
215 -215 0
216 -216 0
-12 -159 0
-12 -160 0
159 -159 0
160 -160 0
-31 -167 0
-31 -168 0
167 -167 0
168 -168 0
-50 -175 0
-50 -176 0
175 -175 0
176 -176 0
-69 -183 0
-69 -184 0
183 -183 0
184 -184 0
-88 -191 0
-88 -192 0
191 -191 0
192 -192 0
-107 -199 0
-107 -200 0
199 -199 0
200 -200 0
-126 -207 0
-126 -208 0
207 -207 0
208 -208 0
-145 -215 0
-145 -216 0
215 -215 0
216 -216 0
13 -229 -159 0
-13 229 -159 0
13 229 -160 0
-13 -229 -160 0
32 -229 -167 0
-32 229 -167 0
32 229 -168 0
-32 -229 -168 0
51 -229 -175 0
-51 229 -175 0
51 229 -176 0
-51 -229 -176 0
70 -229 -183 0
-70 229 -183 0
70 229 -184 0
-70 -229 -184 0
89 -229 -191 0
-89 229 -191 0
89 229 -192 0
-89 -229 -192 0
108 -229 -199 0
-108 229 -199 0
108 229 -200 0
-108 -229 -200 0
127 -229 -207 0
-127 229 -207 0
127 229 -208 0
-127 -229 -208 0
146 -229 -215 0
-146 229 -215 0
146 229 -216 0
-146 -229 -216 0
14 -230 -159 0
-14 230 -159 0
14 230 -160 0
-14 -230 -160 0
33 -230 -167 0
-33 230 -167 0
33 230 -168 0
-33 -230 -168 0
52 -230 -175 0
-52 230 -175 0
52 230 -176 0
-52 -230 -176 0
71 -230 -183 0
-71 230 -183 0
71 230 -184 0
-71 -230 -184 0
90 -230 -191 0
-90 230 -191 0
90 230 -192 0
-90 -230 -192 0
109 -230 -199 0
-109 230 -199 0
109 230 -200 0
-109 -230 -200 0
128 -230 -207 0
-128 230 -207 0
128 230 -208 0
-128 -230 -208 0
147 -230 -215 0
-147 230 -215 0
147 230 -216 0
-147 -230 -216 0
15 -231 -159 0
-15 231 -159 0
15 231 -160 0
-15 -231 -160 0
34 -231 -167 0
-34 231 -167 0
34 231 -168 0
-34 -231 -168 0
53 -231 -175 0
-53 231 -175 0
53 231 -176 0
-53 -231 -176 0
72 -231 -183 0
-72 231 -183 0
72 231 -184 0
-72 -231 -184 0
91 -231 -191 0
-91 231 -191 0
91 231 -192 0
-91 -231 -192 0
110 -231 -199 0
-110 231 -199 0
110 231 -200 0
-110 -231 -200 0
129 -231 -207 0
-129 231 -207 0
129 231 -208 0
-129 -231 -208 0
148 -231 -215 0
-148 231 -215 0
148 231 -216 0
-148 -231 -216 0
16 -232 -159 0
-16 232 -159 0
16 232 -160 0
-16 -232 -160 0
35 -232 -167 0
-35 232 -167 0
35 232 -168 0
-35 -232 -168 0
54 -232 -175 0
-54 232 -175 0
54 232 -176 0
-54 -232 -176 0
73 -232 -183 0
-73 232 -183 0
73 232 -184 0
-73 -232 -184 0
92 -232 -191 0
-92 232 -191 0
92 232 -192 0
-92 -232 -192 0
111 -232 -199 0
-111 232 -199 0
111 232 -200 0
-111 -232 -200 0
130 -232 -207 0
-130 232 -207 0
130 232 -208 0
-130 -232 -208 0
149 -232 -215 0
-149 232 -215 0
149 232 -216 0
-149 -232 -216 0
17 -233 -159 0
-17 233 -159 0
17 233 -160 0
-17 -233 -160 0
36 -233 -167 0
-36 233 -167 0
36 233 -168 0
-36 -233 -168 0
55 -233 -175 0
-55 233 -175 0
55 233 -176 0
-55 -233 -176 0
74 -233 -183 0
-74 233 -183 0
74 233 -184 0
-74 -233 -184 0
93 -233 -191 0
-93 233 -191 0
93 233 -192 0
-93 -233 -192 0
112 -233 -199 0
-112 233 -199 0
112 233 -200 0
-112 -233 -200 0
131 -233 -207 0
-131 233 -207 0
131 233 -208 0
-131 -233 -208 0
150 -233 -215 0
-150 233 -215 0
150 233 -216 0
-150 -233 -216 0
18 -234 -159 0
-18 234 -159 0
18 234 -160 0
-18 -234 -160 0
37 -234 -167 0
-37 234 -167 0
37 234 -168 0
-37 -234 -168 0
56 -234 -175 0
-56 234 -175 0
56 234 -176 0
-56 -234 -176 0
75 -234 -183 0
-75 234 -183 0
75 234 -184 0
-75 -234 -184 0
94 -234 -191 0
-94 234 -191 0
94 234 -192 0
-94 -234 -192 0
113 -234 -199 0
-113 234 -199 0
113 234 -200 0
-113 -234 -200 0
132 -234 -207 0
-132 234 -207 0
132 234 -208 0
-132 -234 -208 0
151 -234 -215 0
-151 234 -215 0
151 234 -216 0
-151 -234 -216 0
-19 -159 0
-19 -160 0
159 -159 0
160 -160 0
-38 -167 0
-38 -168 0
167 -167 0
168 -168 0
-57 -175 0
-57 -176 0
175 -175 0
176 -176 0
-76 -183 0
-76 -184 0
183 -183 0
184 -184 0
-95 -191 0
-95 -192 0
191 -191 0
192 -192 0
-114 -199 0
-114 -200 0
199 -199 0
200 -200 0
-133 -207 0
-133 -208 0
207 -207 0
208 -208 0
-152 -215 0
-152 -216 0
215 -215 0
216 -216 0
-299 159 0
299 -159 0
-300 160 0
299 -160 0
-299 -159 0
-300 -160 0
-307 159 299 0
307 -159 0
307 -299 0
-308 160 300 0
308 -160 0
308 -300 0
-307 -167 0
-308 -168 0
-315 167 307 0
315 -167 0
315 -307 0
-316 168 308 0
316 -168 0
316 -308 0
-315 -175 0
-316 -176 0
-323 175 315 0
323 -175 0
323 -315 0
-324 176 316 0
324 -176 0
324 -316 0
-323 -183 0
-324 -184 0
-331 183 323 0
331 -183 0
331 -323 0
-332 184 324 0
332 -184 0
332 -324 0
-331 -191 0
-332 -192 0
-339 191 331 0
339 -191 0
339 -331 0
-340 192 332 0
340 -192 0
340 -332 0
-339 -199 0
-340 -200 0
-347 199 339 0
347 -199 0
347 -339 0
-348 200 340 0
348 -200 0
348 -340 0
-347 -207 0
-348 -208 0
-355 207 347 0
355 -207 0
355 -347 0
-356 208 348 0
356 -208 0
356 -348 0
-355 -215 0
-356 -216 0
355 0
356 0
